(declare-const a Real)
(declare-const b Real)
(declare-const c Real)
(assert (= (* a b c) 1))
(assert (> a 0))
(assert (> b 0))
(assert (> c 0))
(assert (not (<= (+ (* -229944688640 (pow b 4)) (* -175989161984 (pow a 4)) (* -695784701952 (pow a (/ 4 3)) (pow b (/ 8 3))) (* 10229317632 (pow a 2) (pow b 2)) (* 259860856832 b (pow a 3)) (* 831628378112 a (pow b 3))) 0)))
(check-sat)
(get-model)
(exit)